W=4;
H=7;

MAX_TIME=21;
MAX_TRACKS=10;

TARGET=(7,4);

TRAINS=[(1,1,DOWN),(7,1,TOP)];

INIT_POS=[
(1,1,STRAIGHT_TD),
(1,2,CORNER_DR),
(2,3,STRAIGHT_TD),
(3,2,EMPTY),
(4,1,ESWITCH_D_T_R),
(4,3,ESWITCH_T_D_L),
(5,3,STRAIGHT_TD),
(6,3,STRAIGHT_TD),
(7,1,STRAIGHT_TD),
(7,3,CORNER_TR),
(7,4,STRAIGHT_RL),
];
TUNNEL_PAIRS=[];

GATES=[
(2,3,2,false),
(6,3,1,false),
];
ACTIVATIONS=[
(1,2,1),
(5,3,2),
];

DSWITCHES=[];
STATIONS=[];
